
n_res = 8;
rcap = [79, 76, 76, 80, 608, 718, 658, 653];
rtype = [1, 1, 1, 1, 2, 2, 2, 2];
n_tasks = 50;
modes =  [{1, 2, 3, 4, 5, 6}, {7, 8, 9, 10, 11, 12}, {13, 14, 15, 16, 17, 18}, {19, 20, 21, 22, 23, 24}, {25, 26, 27, 28, 29, 30}, {31, 32, 33, 34, 35, 36}, {37, 38, 39, 40, 41, 42}, {43, 44, 45, 46, 47, 48}, {49, 50, 51, 52, 53, 54}, {55, 56, 57, 58, 59, 60}, {61, 62, 63, 64, 65, 66}, {67, 68, 69, 70, 71, 72}, {73, 74, 75, 76, 77, 78}, {79, 80, 81, 82, 83, 84}, {85, 86, 87, 88, 89, 90}, {91, 92, 93, 94, 95, 96}, {97, 98, 99, 100, 101, 102}, {103, 104, 105, 106, 107, 108}, {109, 110, 111, 112, 113, 114}, {115, 116, 117, 118, 119, 120}, {121, 122, 123, 124, 125, 126}, {127, 128, 129, 130, 131, 132}, {133, 134, 135, 136, 137, 138}, {139, 140, 141, 142, 143, 144}, {145, 146, 147, 148, 149, 150}, {151, 152, 153, 154, 155, 156}, {157, 158, 159, 160, 161, 162}, {163, 164, 165, 166, 167, 168}, {169, 170, 171, 172, 173, 174}, {175, 176, 177, 178, 179, 180}, {181, 182, 183, 184, 185, 186}, {187, 188, 189, 190, 191, 192}, {193, 194, 195, 196, 197, 198}, {199, 200, 201, 202, 203, 204}, {205, 206, 207, 208, 209, 210}, {211, 212, 213, 214, 215, 216}, {217, 218, 219, 220, 221, 222}, {223, 224, 225, 226, 227, 228}, {229, 230, 231, 232, 233, 234}, {235, 236, 237, 238, 239, 240}, {241, 242, 243, 244, 245, 246}, {247, 248, 249, 250, 251, 252}, {253, 254, 255, 256, 257, 258}, {259, 260, 261, 262, 263, 264}, {265, 266, 267, 268, 269, 270}, {271, 272, 273, 274, 275, 276}, {277, 278, 279, 280, 281, 282}, {283, 284, 285, 286, 287, 288}, {289, 290, 291, 292, 293, 294}, {295, 296, 297, 298, 299, 300}];
succ =  [{28, 27, 25, 21, 18, 13, 11, 10}, {28, 27, 25, 23, 22, 20, 19, 18, 12}, {33, 28, 26, 5}, {32, 27, 23, 22, 18, 12}, {35, 23, 20, 19, 17, 16, 15}, {28, 26, 20, 11}, {35, 29, 23, 20, 19, 16}, {35, 29, 28, 26, 20, 16}, {39, 35, 29, 23, 22, 20, 19}, {39, 35, 32, 29, 26, 22, 20}, {39, 29, 24, 23, 22, 19}, {35, 26, 17, 15}, {50, 39, 35, 29, 23, 20}, {39, 35, 29, 28, 24, 19}, {50, 49, 48, 39, 36, 31, 29, 24}, {50, 48, 47, 39, 32, 24, 22}, {50, 48, 47, 39, 38, 36, 34, 31, 30}, {49, 48, 36, 29, 24}, {50, 47, 38, 36, 34, 32, 31, 30}, {49, 36, 31, 24}, {48, 47, 46, 45, 36, 34, 31}, {49, 42, 38, 36, 34, 30}, {49, 48, 43, 42, 38, 30}, {43, 42, 38, 34, 30}, {46, 45, 44, 42, 38, 37, 36}, {49, 45, 36, 34}, {49, 45, 43, 41, 39, 38}, {44, 42, 37, 36}, {47, 42, 34}, {46, 45, 44, 37}, {44, 42, 40, 37}, {46, 45, 42, 40}, {47, 43, 42, 40}, {44, 40, 37}, {48, 43, 41}, {43, 40}, {41}, {40}, {42}, {}, {}, {}, {}, {}, {}, {}, {}, {}, {}, {}];
n_opt = 300;
dur = [8, 9, 13, 14, 22, 26, 3, 10, 20, 21, 22, 26, 3, 10, 21, 22, 24, 27, 5, 7, 8, 9, 23, 27, 1, 5, 6, 10, 22, 28, 7, 9, 12, 13, 25, 27, 6, 9, 12, 14, 17, 19, 11, 12, 18, 28, 29, 30, 3, 4, 15, 20, 28, 30, 1, 11, 14, 15, 21, 26, 5, 6, 7, 12, 18, 21, 3, 4, 6, 15, 18, 30, 1, 6, 11, 15, 22, 25, 10, 13, 23, 27, 29, 30, 3, 7, 11, 13, 19, 26, 3, 18, 20, 21, 22, 26, 2, 9, 10, 13, 14, 22, 3, 8, 11, 14, 17, 19, 2, 17, 18, 22, 29, 30, 11, 19, 26, 27, 29, 30, 1, 9, 10, 18, 19, 30, 4, 14, 15, 24, 25, 26, 5, 9, 11, 12, 13, 20, 4, 12, 13, 18, 21, 27, 5, 8, 13, 20, 21, 26, 7, 8, 9, 13, 19, 24, 5, 6, 9, 17, 22, 27, 7, 8, 15, 23, 25, 29, 8, 12, 19, 20, 28, 30, 5, 12, 16, 17, 21, 24, 6, 10, 11, 17, 27, 29, 8, 14, 19, 20, 21, 23, 1, 2, 9, 11, 28, 30, 5, 10, 11, 18, 21, 26, 10, 20, 21, 24, 28, 29, 2, 16, 17, 18, 19, 29, 1, 7, 8, 20, 25, 28, 1, 3, 4, 5, 11, 23, 6, 7, 9, 15, 16, 29, 12, 13, 17, 21, 24, 29, 16, 18, 19, 25, 28, 29, 1, 17, 18, 23, 24, 27, 1, 12, 14, 18, 24, 25, 8, 16, 17, 22, 23, 24, 4, 8, 15, 16, 18, 19, 7, 9, 14, 15, 18, 21, 8, 10, 23, 27, 29, 30, 4, 6, 7, 13, 17, 27, 7, 11, 14, 17, 26, 29, 4, 6, 7, 15, 22, 29];
rreq = [|20, 20, 16, 15, 12, 11, 26, 21, 18, 17, 15, 10, 12, 11, 9, 8, 6, 6, 21, 20, 18, 15, 12, 11, 25, 23, 22, 17, 16, 14, 25, 23, 21, 20, 18, 17, 24, 22, 22, 19, 17, 14, 14, 14, 12, 9, 8, 6, 20, 15, 15, 11, 9, 4, 24, 21, 15, 12, 9, 8, 19, 18, 17, 15, 14, 13, 14, 14, 12, 9, 6, 6, 26, 26, 23, 23, 22, 19, 28, 25, 25, 20, 20, 15, 23, 21, 17, 13, 9, 6, 27, 27, 25, 23, 20, 19, 10, 9, 8, 6, 5, 4, 14, 12, 11, 10, 8, 5, 18, 17, 17, 17, 17, 17, 17, 15, 14, 13, 12, 10, 27, 23, 22, 21, 17, 16, 21, 17, 12, 9, 5, 2, 20, 18, 16, 15, 14, 13, 20, 19, 18, 18, 16, 16, 27, 25, 24, 22, 20, 18, 28, 26, 24, 21, 20, 16, 22, 22, 22, 22, 22, 22, 21, 18, 15, 13, 10, 5, 26, 21, 19, 18, 15, 10, 27, 27, 26, 25, 23, 22, 22, 19, 19, 17, 16, 16, 16, 16, 16, 16, 16, 16, 24, 23, 22, 21, 19, 19, 17, 15, 15, 12, 10, 9, 9, 7, 7, 6, 4, 4, 28, 26, 26, 25, 23, 23, 22, 16, 16, 11, 9, 5, 4, 3, 3, 2, 2, 1, 22, 21, 19, 19, 17, 16, 21, 21, 20, 20, 20, 19, 27, 25, 21, 21, 16, 14, 26, 26, 26, 25, 25, 24, 28, 25, 23, 22, 19, 18, 26, 23, 22, 17, 15, 13, 17, 17, 17, 17, 17, 17, 12, 11, 10, 6, 5, 3, 28, 22, 17, 16, 12, 6, 24, 21, 20, 16, 16, 13, 24, 19, 18, 14, 10, 6, 21, 17, 13, 12, 5, 4
 |28, 27, 27, 27, 25, 25, 29, 28, 28, 27, 25, 25, 14, 13, 13, 12, 12, 12, 3, 2, 2, 2, 2, 2, 28, 27, 23, 21, 21, 17, 20, 19, 17, 16, 15, 13, 20, 13, 13, 10, 6, 3, 25, 25, 21, 17, 14, 9, 14, 13, 12, 11, 10, 7, 6, 5, 5, 5, 5, 5, 10, 10, 10, 9, 8, 8, 19, 19, 19, 19, 19, 19, 12, 11, 10, 10, 10, 9, 5, 5, 5, 5, 5, 5, 24, 22, 16, 11, 5, 1, 21, 20, 16, 14, 14, 11, 19, 15, 14, 10, 4, 3, 22, 20, 18, 17, 13, 12, 14, 13, 12, 12, 10, 10, 22, 20, 19, 14, 12, 9, 26, 24, 23, 21, 19, 17, 30, 29, 29, 28, 28, 28, 23, 20, 18, 13, 11, 10, 16, 15, 12, 11, 9, 5, 19, 19, 19, 18, 18, 18, 28, 27, 25, 25, 24, 23, 19, 18, 16, 16, 13, 12, 3, 2, 2, 2, 1, 1, 22, 17, 14, 9, 6, 2, 25, 25, 21, 20, 18, 16, 9, 9, 9, 9, 9, 9, 27, 26, 25, 24, 23, 23, 5, 5, 5, 5, 5, 5, 28, 26, 22, 17, 14, 11, 27, 27, 27, 26, 26, 26, 13, 12, 12, 12, 12, 12, 13, 11, 10, 9, 9, 8, 6, 5, 5, 4, 4, 3, 18, 17, 17, 16, 16, 15, 20, 17, 12, 8, 8, 1, 19, 18, 14, 9, 9, 3, 13, 9, 8, 5, 5, 2, 12, 10, 9, 6, 6, 4, 10, 9, 9, 8, 8, 8, 25, 23, 16, 13, 9, 4, 23, 21, 19, 16, 12, 8, 16, 16, 16, 16, 15, 15, 27, 21, 18, 14, 12, 11, 29, 28, 26, 25, 23, 22, 15, 13, 13, 12, 11, 10
 |9, 9, 8, 7, 4, 4, 18, 15, 10, 10, 6, 4, 19, 17, 15, 14, 11, 10, 24, 17, 16, 13, 10, 5, 16, 15, 14, 9, 8, 6, 20, 19, 17, 17, 15, 13, 22, 21, 19, 17, 15, 10, 13, 12, 11, 11, 9, 9, 19, 18, 15, 12, 12, 9, 19, 19, 18, 17, 16, 15, 27, 23, 20, 18, 11, 10, 13, 12, 11, 10, 10, 9, 30, 29, 27, 27, 25, 25, 13, 11, 10, 9, 7, 6, 14, 13, 13, 13, 13, 13, 27, 23, 23, 19, 19, 15, 24, 21, 17, 15, 12, 10, 13, 12, 12, 11, 10, 10, 17, 14, 13, 11, 10, 8, 29, 25, 22, 15, 12, 10, 24, 20, 18, 15, 11, 11, 9, 8, 8, 6, 6, 5, 20, 18, 15, 14, 13, 8, 25, 24, 23, 21, 21, 19, 10, 9, 8, 8, 8, 7, 27, 26, 24, 22, 19, 17, 28, 26, 24, 22, 20, 16, 19, 18, 18, 17, 17, 16, 2, 2, 2, 2, 2, 2, 15, 12, 10, 7, 5, 4, 20, 20, 20, 20, 20, 20, 26, 23, 22, 21, 21, 19, 25, 22, 17, 16, 14, 11, 27, 24, 19, 18, 13, 13, 15, 12, 10, 7, 6, 4, 11, 10, 10, 8, 7, 7, 10, 7, 6, 6, 3, 1, 24, 21, 21, 18, 17, 17, 30, 29, 29, 28, 28, 27, 17, 15, 12, 11, 8, 8, 27, 25, 25, 22, 20, 19, 16, 16, 16, 16, 16, 16, 18, 17, 15, 14, 13, 13, 22, 19, 17, 13, 11, 5, 20, 17, 16, 15, 11, 10, 16, 16, 14, 12, 11, 8, 8, 7, 7, 7, 7, 7, 15, 14, 13, 12, 11, 11, 18, 16, 14, 11, 11, 8, 28, 26, 19, 16, 10, 6
 |12, 8, 7, 5, 3, 3, 11, 10, 10, 9, 7, 6, 17, 16, 13, 12, 10, 9, 6, 6, 5, 5, 4, 3, 24, 23, 23, 23, 21, 21, 22, 22, 20, 19, 16, 14, 17, 15, 14, 13, 13, 11, 28, 26, 25, 24, 23, 21, 20, 17, 15, 9, 8, 4, 18, 14, 14, 12, 8, 7, 23, 21, 20, 15, 12, 9, 24, 21, 19, 17, 17, 14, 23, 22, 22, 20, 19, 18, 28, 25, 20, 18, 14, 10, 29, 27, 25, 24, 23, 22, 16, 14, 10, 7, 4, 3, 13, 10, 8, 5, 5, 2, 15, 14, 13, 12, 11, 10, 17, 17, 17, 16, 15, 15, 28, 27, 26, 26, 24, 24, 11, 10, 9, 8, 8, 7, 27, 24, 22, 18, 14, 13, 24, 21, 18, 11, 9, 5, 23, 22, 19, 19, 15, 15, 27, 22, 21, 15, 15, 9, 18, 17, 16, 12, 10, 10, 18, 13, 13, 8, 4, 4, 19, 18, 18, 16, 15, 14, 11, 10, 9, 6, 6, 4, 24, 23, 16, 13, 8, 6, 19, 15, 15, 12, 10, 6, 27, 24, 23, 22, 20, 19, 27, 26, 25, 25, 25, 24, 3, 3, 3, 3, 2, 2, 22, 20, 18, 15, 12, 8, 23, 18, 15, 9, 7, 1, 27, 25, 25, 22, 21, 19, 27, 26, 26, 25, 25, 25, 6, 5, 4, 4, 3, 3, 29, 28, 27, 27, 26, 24, 24, 24, 24, 24, 24, 24, 22, 21, 20, 20, 18, 18, 11, 11, 7, 7, 5, 2, 8, 6, 5, 3, 3, 1, 4, 4, 4, 4, 4, 4, 16, 14, 13, 12, 12, 11, 25, 23, 20, 19, 17, 14, 30, 29, 29, 29, 29, 29, 28, 28, 28, 28, 28, 28, 19, 18, 14, 13, 12, 8
 |13, 11, 11, 9, 9, 8, 4, 4, 4, 4, 4, 4, 21, 17, 13, 10, 8, 6, 21, 19, 18, 18, 16, 16, 5, 5, 5, 5, 4, 4, 13, 13, 12, 11, 11, 10, 23, 21, 20, 19, 19, 17, 22, 16, 15, 10, 10, 6, 26, 25, 23, 21, 18, 16, 4, 4, 4, 4, 4, 4, 18, 14, 13, 9, 9, 5, 22, 21, 21, 20, 18, 18, 12, 12, 12, 12, 11, 11, 29, 22, 22, 14, 10, 9, 20, 19, 17, 17, 15, 15, 21, 17, 17, 15, 12, 11, 27, 26, 25, 24, 23, 21, 27, 24, 17, 16, 10, 7, 10, 10, 10, 10, 9, 9, 12, 9, 9, 8, 6, 5, 3, 3, 3, 2, 2, 2, 23, 22, 22, 22, 21, 21, 27, 26, 25, 25, 23, 23, 21, 21, 20, 18, 18, 17, 6, 5, 5, 4, 4, 4, 4, 4, 4, 4, 4, 4, 26, 25, 25, 24, 24, 23, 8, 7, 7, 6, 5, 3, 18, 18, 17, 16, 14, 14, 8, 7, 6, 6, 4, 4, 17, 16, 15, 14, 14, 13, 15, 15, 14, 14, 12, 12, 27, 25, 24, 23, 22, 19, 28, 25, 24, 22, 18, 17, 18, 15, 12, 10, 5, 1, 20, 19, 18, 18, 18, 17, 22, 17, 16, 13, 10, 5, 21, 21, 20, 19, 19, 18, 13, 11, 11, 8, 7, 7, 24, 20, 18, 18, 16, 14, 28, 23, 23, 20, 15, 14, 11, 10, 8, 5, 4, 3, 16, 14, 10, 7, 4, 3, 28, 28, 26, 26, 24, 24, 19, 19, 15, 13, 11, 10, 2, 2, 2, 2, 2, 2, 6, 6, 4, 4, 2, 2, 26, 18, 18, 13, 7, 4, 13, 13, 12, 10, 10, 9, 19, 17, 16, 15, 14, 11
 |22, 21, 20, 19, 18, 18, 27, 22, 19, 15, 15, 10, 29, 28, 27, 25, 24, 23, 30, 26, 21, 18, 17, 13, 20, 17, 13, 12, 9, 5, 26, 25, 20, 17, 14, 14, 27, 26, 24, 24, 22, 21, 17, 16, 15, 15, 14, 14, 19, 19, 17, 16, 15, 15, 20, 18, 15, 13, 12, 11, 28, 27, 25, 25, 24, 23, 11, 11, 11, 11, 11, 11, 25, 21, 20, 17, 16, 13, 24, 24, 24, 24, 23, 23, 6, 5, 5, 5, 5, 5, 24, 22, 21, 14, 14, 9, 15, 13, 11, 10, 7, 4, 14, 12, 11, 11, 9, 8, 22, 22, 20, 18, 18, 17, 9, 8, 6, 5, 4, 4, 23, 22, 21, 21, 21, 20, 12, 12, 11, 11, 10, 10, 18, 15, 12, 12, 9, 6, 6, 5, 4, 3, 3, 2, 17, 17, 15, 15, 14, 13, 22, 20, 19, 16, 13, 12, 11, 9, 7, 7, 5, 4, 30, 29, 28, 26, 26, 25, 1, 1, 1, 1, 1, 1, 28, 23, 21, 18, 15, 14, 22, 21, 18, 15, 13, 10, 4, 3, 2, 2, 2, 1, 20, 19, 18, 17, 16, 15, 1, 1, 1, 1, 1, 1, 28, 26, 26, 26, 25, 24, 25, 23, 23, 22, 21, 21, 10, 10, 10, 10, 10, 10, 17, 17, 17, 17, 17, 17, 29, 27, 26, 25, 22, 22, 14, 12, 10, 9, 7, 6, 5, 4, 4, 3, 3, 2, 20, 19, 18, 17, 16, 16, 26, 21, 21, 15, 13, 12, 18, 18, 18, 17, 17, 17, 26, 26, 26, 26, 26, 26, 23, 21, 17, 17, 15, 10, 19, 19, 19, 18, 18, 18, 26, 22, 18, 12, 11, 7, 24, 23, 23, 22, 22, 21, 23, 19, 18, 16, 14, 13
 |19, 18, 17, 17, 16, 15, 20, 18, 17, 16, 14, 10, 10, 10, 10, 10, 10, 10, 25, 22, 18, 16, 11, 8, 24, 20, 18, 16, 13, 8, 22, 21, 17, 13, 11, 7, 6, 5, 5, 4, 3, 1, 26, 25, 24, 23, 22, 22, 26, 22, 21, 19, 14, 12, 9, 8, 8, 8, 8, 8, 18, 17, 16, 16, 15, 14, 27, 24, 23, 22, 20, 20, 23, 23, 23, 23, 23, 23, 26, 24, 18, 15, 12, 4, 17, 16, 15, 13, 13, 11, 22, 21, 19, 17, 17, 16, 26, 24, 23, 21, 21, 20, 18, 18, 18, 17, 16, 16, 21, 18, 18, 15, 15, 12, 15, 14, 14, 13, 13, 13, 14, 12, 12, 10, 7, 6, 23, 19, 17, 17, 13, 11, 20, 16, 16, 11, 9, 7, 27, 22, 19, 14, 10, 10, 30, 27, 27, 25, 24, 24, 16, 16, 16, 16, 16, 16, 29, 25, 19, 13, 10, 9, 6, 6, 6, 6, 5, 5, 28, 23, 21, 15, 12, 7, 18, 16, 15, 14, 14, 13, 26, 23, 21, 18, 17, 15, 19, 15, 14, 11, 7, 4, 26, 25, 17, 13, 12, 6, 27, 26, 23, 20, 16, 12, 24, 21, 15, 15, 11, 6, 18, 14, 14, 12, 7, 6, 27, 25, 22, 19, 14, 14, 18, 17, 16, 15, 14, 14, 7, 6, 6, 5, 4, 4, 24, 19, 16, 11, 9, 6, 23, 22, 22, 22, 21, 21, 2, 2, 2, 2, 2, 2, 8, 7, 5, 5, 4, 3, 29, 25, 17, 15, 5, 3, 17, 14, 13, 12, 10, 7, 22, 19, 17, 17, 13, 13, 27, 24, 20, 20, 18, 13, 15, 12, 11, 9, 7, 7, 21, 19, 16, 13, 11, 7, 20, 20, 20, 20, 20, 20
 |14, 13, 11, 10, 10, 9, 23, 22, 22, 22, 22, 22, 25, 23, 16, 14, 8, 2, 25, 25, 21, 20, 18, 15, 1, 1, 1, 1, 1, 1, 25, 22, 21, 19, 17, 16, 17, 16, 16, 16, 16, 16, 26, 24, 24, 23, 22, 21, 29, 26, 23, 20, 16, 14, 29, 29, 29, 28, 28, 28, 24, 23, 21, 20, 17, 16, 22, 19, 16, 15, 10, 7, 16, 13, 12, 8, 7, 4, 23, 18, 16, 11, 9, 1, 19, 18, 17, 16, 15, 15, 23, 21, 19, 14, 11, 10, 22, 22, 22, 21, 21, 21, 22, 16, 15, 10, 6, 3, 25, 23, 18, 14, 8, 6, 28, 28, 27, 25, 25, 24, 12, 12, 11, 11, 11, 10, 11, 10, 8, 7, 6, 5, 21, 18, 17, 17, 14, 13, 17, 17, 17, 17, 17, 17, 12, 11, 9, 8, 8, 7, 13, 12, 12, 10, 8, 7, 26, 23, 22, 18, 16, 14, 23, 19, 14, 11, 8, 5, 11, 10, 10, 10, 8, 8, 26, 25, 24, 24, 23, 23, 17, 16, 15, 15, 13, 13, 19, 17, 15, 13, 11, 11, 19, 18, 18, 16, 15, 15, 24, 21, 19, 18, 14, 11, 24, 24, 24, 23, 22, 22, 19, 18, 15, 13, 10, 7, 17, 16, 14, 14, 13, 12, 8, 7, 6, 6, 5, 5, 8, 8, 8, 8, 8, 8, 20, 16, 13, 8, 4, 1, 6, 5, 4, 3, 2, 2, 9, 8, 8, 7, 6, 6, 26, 23, 19, 16, 10, 6, 26, 25, 24, 23, 21, 21, 10, 9, 8, 6, 5, 3, 11, 8, 7, 7, 6, 5, 23, 22, 22, 22, 22, 22, 15, 13, 12, 10, 9, 9, 25, 20, 16, 14, 12, 6, 25, 22, 20, 13, 9, 6|];